200
100
100
100
100
100
99
99
99
98
98
98
97
96
96
96
96
95
95
95
95
94
94
94
94
94
93
93
93
92
92
92
92
92
92
92
92
91
91
90
89
88
88
88
88
87
87
87
87
87
86
85
85
85
85
85
84
83
83
83
83
82
81
81
80
80
80
80
80
79
79
78
78
78
77
77
77
77
76
75
75
74
74
73
72
72
71
69
69
69
69
69
68
68
67
67
66
64
63
62
62
62
62
61
61
61
61
60
59
58
58
58
57
57
57
57
56
56
55
54
54
54
53
52
51
51
51
50
50
50
50
50
49
47
47
46
44
43
43
42
42
42
42
42
42
42
42
41
41
41
40
40
39
39
38
38
37
37
37
36
36
36
36
36
35
35
35
34
33
33
33
32
32
32
31
30
30
30
30
30
29
29
28
28
28
27
27
26
26
25
25
24
24
23
23
22
22
22
22
22
21
20
